300
750
525
524
523
523
522
521
519
518
516
516
516
515
515
514
514
514
513
512
510
510
510
510
509
507
507
505
504
504
504
500
497
497
496
496
495
493
490
490
487
486
486
486
484
482
478
476
475
473
472
470
470
468
465
463
461
461
460
459
457
455
451
450
448
448
447
447
447
446
446
444
444
442
442
441
441
440
437
437
436
435
432
431
430
424
424
422
422
420
418
417
417
417
416
414
413
411
408
406
405
405
404
403
401
398
397
395
392
388
385
383
379
378
378
377
377
377
376
375
375
372
371
370
367
367
366
366
364
364
360
360
359
358
358
357
357
354
353
352
350
350
350
348
344
344
344
343
343
340
340
339
336
335
332
332
330
329
327
327
326
320
319
317
317
317
317
316
315
314
314
314
313
312
311
309
306
304
302
302
301
301
300
299
298
297
296
296
295
294
293
288
288
287
287
286
284
283
280
280
280
279
279
278
277
277
276
275
274
269
269
266
266
266
263
262
261
261
260
260
258
257
256
255
254
253
250
250
247
247
247
246
245
244
243
242
237
237
236
236
235
235
232
230
228
227
220
219
218
218
217
216
215
215
214
212
211
207
205
203
198
197
196
194
194
192
190
190
188
185
184
183
181
181
179
179
177
175
175
175
173
173
171
171
170
170
169
166
166
166
163
162
161
161
160
159
159
158
157
156
155
155
